\Problem name: ilog.cplex

Minimize
 obj: 2 c(0) + c(4) + c(5) + c(7) + 0 D(0)(0)(0) + 0 D(0)(1)(0) + 0 D(0)(2)(0)
      + 0 D(0)(3)(0) + 0 D(0)(4)(0) + 0 D(0)(5)(0) + 0 D(0)(6)(0)
      + 0 D(0)(7)(0) + 0 D(0)(8)(0) + 0 D(1)(0)(0) + 0 D(1)(1)(0)
      + 0 D(1)(2)(0) + 0 D(1)(3)(0) + 0 D(1)(4)(0) + 0 D(1)(5)(0)
      + 0 D(1)(6)(0) + 0 D(1)(7)(0) + 0 D(1)(8)(0)
Subject To
 IloC0:   x(0)(0)(0)  = 0
 IloC1:   x(0)(0)(1)  = 0
 IloC2:   x(0)(4)(0)  = 0
 IloC3:   x(0)(5)(0)  = 0
 IloC4:   x(0)(7)(0)  = 0
 IloC5:   x(1)(0)(0)  = 0
 IloC6:   x(1)(0)(1)  = 0
 IloC7:   x(1)(4)(0)  = 0
 IloC8:   x(1)(5)(0)  = 0
 IloC9:   x(1)(7)(0)  = 0
 IloC10:  D(0)(0)(1)  = 45000000
 IloC11:  D(0)(1)(1)  = 0
 IloC12:  D(0)(2)(1)  = 0
 IloC13:  D(0)(3)(1)  = 0
 IloC14:  D(0)(4)(1)  = 40000000
 IloC15:  D(0)(5)(1)  = 40000000
 IloC16:  D(0)(6)(1)  = 0
 IloC17:  D(0)(7)(1)  = -1
 IloC18:  D(0)(8)(1)  = 0
 IloC19:  D(1)(0)(1)  = 45000000
 IloC20:  D(1)(1)(1)  = 0
 IloC21:  D(1)(2)(1)  = 0
 IloC22:  D(1)(3)(1)  = 0
 IloC23:  D(1)(4)(1)  = -1
 IloC24:  D(1)(5)(1)  = -1
 IloC25:  D(1)(6)(1)  = 0
 IloC26:  D(1)(7)(1)  = 20000000
 IloC27:  D(1)(8)(1)  = 0
 IloC28:  - x(0)(0)(0) - x(0)(0)(1) + y(0)(0) - x(0)(0)(2) - x(0)(0)(3)
          - x(0)(0)(4)  = 0
 IloC29:  - c(0) + y(0)(0) <= 0
 IloC30:  - x(0)(0)(0) - x(0)(0)(1) + y(0)(0) - x(0)(0)(2) - x(0)(0)(3)
          - x(0)(0)(4)  = 0
 IloC31:  - c(0) + y(0)(0) <= 0
 IloC32:  - x(0)(0)(0) - x(0)(0)(1) + y(0)(0) - x(0)(0)(2) - x(0)(0)(3)
          - x(0)(0)(4)  = 0
 IloC33:  - c(0) + y(0)(0) <= 0
 IloC34:  - x(0)(0)(0) - x(0)(0)(1) + y(0)(0) - x(0)(0)(2) - x(0)(0)(3)
          - x(0)(0)(4)  = 0
 IloC35:  - c(0) + y(0)(0) <= 0
 IloC36:  - x(0)(0)(0) - x(0)(0)(1) + y(0)(0) - x(0)(0)(2) - x(0)(0)(3)
          - x(0)(0)(4)  = 0
 IloC37:  - c(0) + y(0)(0) <= 0
 IloC38:  y(0)(1) - x(0)(1)(0) - x(0)(1)(1) - x(0)(1)(2) - x(0)(1)(3)
          - x(0)(1)(4)  = 0
 IloC39:  y(0)(1) - c(1) <= 0
 IloC40:  y(0)(1) - x(0)(1)(0) - x(0)(1)(1) - x(0)(1)(2) - x(0)(1)(3)
          - x(0)(1)(4)  = 0
 IloC41:  y(0)(1) - c(1) <= 0
 IloC42:  y(0)(1) - x(0)(1)(0) - x(0)(1)(1) - x(0)(1)(2) - x(0)(1)(3)
          - x(0)(1)(4)  = 0
 IloC43:  y(0)(1) - c(1) <= 0
 IloC44:  y(0)(1) - x(0)(1)(0) - x(0)(1)(1) - x(0)(1)(2) - x(0)(1)(3)
          - x(0)(1)(4)  = 0
 IloC45:  y(0)(1) - c(1) <= 0
 IloC46:  y(0)(1) - x(0)(1)(0) - x(0)(1)(1) - x(0)(1)(2) - x(0)(1)(3)
          - x(0)(1)(4)  = 0
 IloC47:  y(0)(1) - c(1) <= 0
 IloC48:  y(0)(2) - x(0)(2)(0) - x(0)(2)(1) - x(0)(2)(2) - x(0)(2)(3)
          - x(0)(2)(4)  = 0
 IloC49:  y(0)(2) - c(2) <= 0
 IloC50:  y(0)(2) - x(0)(2)(0) - x(0)(2)(1) - x(0)(2)(2) - x(0)(2)(3)
          - x(0)(2)(4)  = 0
 IloC51:  y(0)(2) - c(2) <= 0
 IloC52:  y(0)(2) - x(0)(2)(0) - x(0)(2)(1) - x(0)(2)(2) - x(0)(2)(3)
          - x(0)(2)(4)  = 0
 IloC53:  y(0)(2) - c(2) <= 0
 IloC54:  y(0)(2) - x(0)(2)(0) - x(0)(2)(1) - x(0)(2)(2) - x(0)(2)(3)
          - x(0)(2)(4)  = 0
 IloC55:  y(0)(2) - c(2) <= 0
 IloC56:  y(0)(2) - x(0)(2)(0) - x(0)(2)(1) - x(0)(2)(2) - x(0)(2)(3)
          - x(0)(2)(4)  = 0
 IloC57:  y(0)(2) - c(2) <= 0
 IloC58:  y(0)(3) - x(0)(3)(0) - x(0)(3)(1) - x(0)(3)(2) - x(0)(3)(3)
          - x(0)(3)(4)  = 0
 IloC59:  y(0)(3) - c(3) <= 0
 IloC60:  y(0)(3) - x(0)(3)(0) - x(0)(3)(1) - x(0)(3)(2) - x(0)(3)(3)
          - x(0)(3)(4)  = 0
 IloC61:  y(0)(3) - c(3) <= 0
 IloC62:  y(0)(3) - x(0)(3)(0) - x(0)(3)(1) - x(0)(3)(2) - x(0)(3)(3)
          - x(0)(3)(4)  = 0
 IloC63:  y(0)(3) - c(3) <= 0
 IloC64:  y(0)(3) - x(0)(3)(0) - x(0)(3)(1) - x(0)(3)(2) - x(0)(3)(3)
          - x(0)(3)(4)  = 0
 IloC65:  y(0)(3) - c(3) <= 0
 IloC66:  y(0)(3) - x(0)(3)(0) - x(0)(3)(1) - x(0)(3)(2) - x(0)(3)(3)
          - x(0)(3)(4)  = 0
 IloC67:  y(0)(3) - c(3) <= 0
 IloC68:  - x(0)(4)(0) + y(0)(4) - x(0)(4)(1) - x(0)(4)(2) - x(0)(4)(3)
          - x(0)(4)(4)  = 0
 IloC69:  - c(4) + y(0)(4) <= 0
 IloC70:  - x(0)(4)(0) + y(0)(4) - x(0)(4)(1) - x(0)(4)(2) - x(0)(4)(3)
          - x(0)(4)(4)  = 0
 IloC71:  - c(4) + y(0)(4) <= 0
 IloC72:  - x(0)(4)(0) + y(0)(4) - x(0)(4)(1) - x(0)(4)(2) - x(0)(4)(3)
          - x(0)(4)(4)  = 0
 IloC73:  - c(4) + y(0)(4) <= 0
 IloC74:  - x(0)(4)(0) + y(0)(4) - x(0)(4)(1) - x(0)(4)(2) - x(0)(4)(3)
          - x(0)(4)(4)  = 0
 IloC75:  - c(4) + y(0)(4) <= 0
 IloC76:  - x(0)(4)(0) + y(0)(4) - x(0)(4)(1) - x(0)(4)(2) - x(0)(4)(3)
          - x(0)(4)(4)  = 0
 IloC77:  - c(4) + y(0)(4) <= 0
 IloC78:  - x(0)(5)(0) + y(0)(5) - x(0)(5)(1) - x(0)(5)(2) - x(0)(5)(3)
          - x(0)(5)(4)  = 0
 IloC79:  - c(5) + y(0)(5) <= 0
 IloC80:  - x(0)(5)(0) + y(0)(5) - x(0)(5)(1) - x(0)(5)(2) - x(0)(5)(3)
          - x(0)(5)(4)  = 0
 IloC81:  - c(5) + y(0)(5) <= 0
 IloC82:  - x(0)(5)(0) + y(0)(5) - x(0)(5)(1) - x(0)(5)(2) - x(0)(5)(3)
          - x(0)(5)(4)  = 0
 IloC83:  - c(5) + y(0)(5) <= 0
 IloC84:  - x(0)(5)(0) + y(0)(5) - x(0)(5)(1) - x(0)(5)(2) - x(0)(5)(3)
          - x(0)(5)(4)  = 0
 IloC85:  - c(5) + y(0)(5) <= 0
 IloC86:  - x(0)(5)(0) + y(0)(5) - x(0)(5)(1) - x(0)(5)(2) - x(0)(5)(3)
          - x(0)(5)(4)  = 0
 IloC87:  - c(5) + y(0)(5) <= 0
 IloC88:  y(0)(6) - x(0)(6)(0) - x(0)(6)(1) - x(0)(6)(2) - x(0)(6)(3)
          - x(0)(6)(4)  = 0
 IloC89:  y(0)(6) - c(6) <= 0
 IloC90:  y(0)(6) - x(0)(6)(0) - x(0)(6)(1) - x(0)(6)(2) - x(0)(6)(3)
          - x(0)(6)(4)  = 0
 IloC91:  y(0)(6) - c(6) <= 0
 IloC92:  y(0)(6) - x(0)(6)(0) - x(0)(6)(1) - x(0)(6)(2) - x(0)(6)(3)
          - x(0)(6)(4)  = 0
 IloC93:  y(0)(6) - c(6) <= 0
 IloC94:  y(0)(6) - x(0)(6)(0) - x(0)(6)(1) - x(0)(6)(2) - x(0)(6)(3)
          - x(0)(6)(4)  = 0
 IloC95:  y(0)(6) - c(6) <= 0
 IloC96:  y(0)(6) - x(0)(6)(0) - x(0)(6)(1) - x(0)(6)(2) - x(0)(6)(3)
          - x(0)(6)(4)  = 0
 IloC97:  y(0)(6) - c(6) <= 0
 IloC98:  - x(0)(7)(0) + y(0)(7) - x(0)(7)(1) - x(0)(7)(2) - x(0)(7)(3)
          - x(0)(7)(4)  = 0
 IloC99:  - c(7) + y(0)(7) <= 0
 IloC100: - x(0)(7)(0) + y(0)(7) - x(0)(7)(1) - x(0)(7)(2) - x(0)(7)(3)
          - x(0)(7)(4)  = 0
 IloC101: - c(7) + y(0)(7) <= 0
 IloC102: - x(0)(7)(0) + y(0)(7) - x(0)(7)(1) - x(0)(7)(2) - x(0)(7)(3)
          - x(0)(7)(4)  = 0
 IloC103: - c(7) + y(0)(7) <= 0
 IloC104: - x(0)(7)(0) + y(0)(7) - x(0)(7)(1) - x(0)(7)(2) - x(0)(7)(3)
          - x(0)(7)(4)  = 0
 IloC105: - c(7) + y(0)(7) <= 0
 IloC106: - x(0)(7)(0) + y(0)(7) - x(0)(7)(1) - x(0)(7)(2) - x(0)(7)(3)
          - x(0)(7)(4)  = 0
 IloC107: - c(7) + y(0)(7) <= 0
 IloC108: y(0)(8) - x(0)(8)(0) - x(0)(8)(1) - x(0)(8)(2) - x(0)(8)(3)
          - x(0)(8)(4)  = 0
 IloC109: y(0)(8) - c(8) <= 0
 IloC110: y(0)(8) - x(0)(8)(0) - x(0)(8)(1) - x(0)(8)(2) - x(0)(8)(3)
          - x(0)(8)(4)  = 0
 IloC111: y(0)(8) - c(8) <= 0
 IloC112: y(0)(8) - x(0)(8)(0) - x(0)(8)(1) - x(0)(8)(2) - x(0)(8)(3)
          - x(0)(8)(4)  = 0
 IloC113: y(0)(8) - c(8) <= 0
 IloC114: y(0)(8) - x(0)(8)(0) - x(0)(8)(1) - x(0)(8)(2) - x(0)(8)(3)
          - x(0)(8)(4)  = 0
 IloC115: y(0)(8) - c(8) <= 0
 IloC116: y(0)(8) - x(0)(8)(0) - x(0)(8)(1) - x(0)(8)(2) - x(0)(8)(3)
          - x(0)(8)(4)  = 0
 IloC117: y(0)(8) - c(8) <= 0
 IloC118: - x(1)(0)(0) - x(1)(0)(1) + y(1)(0) - x(1)(0)(2) - x(1)(0)(3)
          - x(1)(0)(4)  = 0
 IloC119: - c(0) + y(1)(0) <= 0
 IloC120: - x(1)(0)(0) - x(1)(0)(1) + y(1)(0) - x(1)(0)(2) - x(1)(0)(3)
          - x(1)(0)(4)  = 0
 IloC121: - c(0) + y(1)(0) <= 0
 IloC122: - x(1)(0)(0) - x(1)(0)(1) + y(1)(0) - x(1)(0)(2) - x(1)(0)(3)
          - x(1)(0)(4)  = 0
 IloC123: - c(0) + y(1)(0) <= 0
 IloC124: - x(1)(0)(0) - x(1)(0)(1) + y(1)(0) - x(1)(0)(2) - x(1)(0)(3)
          - x(1)(0)(4)  = 0
 IloC125: - c(0) + y(1)(0) <= 0
 IloC126: - x(1)(0)(0) - x(1)(0)(1) + y(1)(0) - x(1)(0)(2) - x(1)(0)(3)
          - x(1)(0)(4)  = 0
 IloC127: - c(0) + y(1)(0) <= 0
 IloC128: y(1)(1) - x(1)(1)(0) - x(1)(1)(1) - x(1)(1)(2) - x(1)(1)(3)
          - x(1)(1)(4)  = 0
 IloC129: - c(1) + y(1)(1) <= 0
 IloC130: y(1)(1) - x(1)(1)(0) - x(1)(1)(1) - x(1)(1)(2) - x(1)(1)(3)
          - x(1)(1)(4)  = 0
 IloC131: - c(1) + y(1)(1) <= 0
 IloC132: y(1)(1) - x(1)(1)(0) - x(1)(1)(1) - x(1)(1)(2) - x(1)(1)(3)
          - x(1)(1)(4)  = 0
 IloC133: - c(1) + y(1)(1) <= 0
 IloC134: y(1)(1) - x(1)(1)(0) - x(1)(1)(1) - x(1)(1)(2) - x(1)(1)(3)
          - x(1)(1)(4)  = 0
 IloC135: - c(1) + y(1)(1) <= 0
 IloC136: y(1)(1) - x(1)(1)(0) - x(1)(1)(1) - x(1)(1)(2) - x(1)(1)(3)
          - x(1)(1)(4)  = 0
 IloC137: - c(1) + y(1)(1) <= 0
 IloC138: y(1)(2) - x(1)(2)(0) - x(1)(2)(1) - x(1)(2)(2) - x(1)(2)(3)
          - x(1)(2)(4)  = 0
 IloC139: - c(2) + y(1)(2) <= 0
 IloC140: y(1)(2) - x(1)(2)(0) - x(1)(2)(1) - x(1)(2)(2) - x(1)(2)(3)
          - x(1)(2)(4)  = 0
 IloC141: - c(2) + y(1)(2) <= 0
 IloC142: y(1)(2) - x(1)(2)(0) - x(1)(2)(1) - x(1)(2)(2) - x(1)(2)(3)
          - x(1)(2)(4)  = 0
 IloC143: - c(2) + y(1)(2) <= 0
 IloC144: y(1)(2) - x(1)(2)(0) - x(1)(2)(1) - x(1)(2)(2) - x(1)(2)(3)
          - x(1)(2)(4)  = 0
 IloC145: - c(2) + y(1)(2) <= 0
 IloC146: y(1)(2) - x(1)(2)(0) - x(1)(2)(1) - x(1)(2)(2) - x(1)(2)(3)
          - x(1)(2)(4)  = 0
 IloC147: - c(2) + y(1)(2) <= 0
 IloC148: y(1)(3) - x(1)(3)(0) - x(1)(3)(1) - x(1)(3)(2) - x(1)(3)(3)
          - x(1)(3)(4)  = 0
 IloC149: - c(3) + y(1)(3) <= 0
 IloC150: y(1)(3) - x(1)(3)(0) - x(1)(3)(1) - x(1)(3)(2) - x(1)(3)(3)
          - x(1)(3)(4)  = 0
 IloC151: - c(3) + y(1)(3) <= 0
 IloC152: y(1)(3) - x(1)(3)(0) - x(1)(3)(1) - x(1)(3)(2) - x(1)(3)(3)
          - x(1)(3)(4)  = 0
 IloC153: - c(3) + y(1)(3) <= 0
 IloC154: y(1)(3) - x(1)(3)(0) - x(1)(3)(1) - x(1)(3)(2) - x(1)(3)(3)
          - x(1)(3)(4)  = 0
 IloC155: - c(3) + y(1)(3) <= 0
 IloC156: y(1)(3) - x(1)(3)(0) - x(1)(3)(1) - x(1)(3)(2) - x(1)(3)(3)
          - x(1)(3)(4)  = 0
 IloC157: - c(3) + y(1)(3) <= 0
 IloC158: - x(1)(4)(0) + y(1)(4) - x(1)(4)(1) - x(1)(4)(2) - x(1)(4)(3)
          - x(1)(4)(4)  = 0
 IloC159: - c(4) + y(1)(4) <= 0
 IloC160: - x(1)(4)(0) + y(1)(4) - x(1)(4)(1) - x(1)(4)(2) - x(1)(4)(3)
          - x(1)(4)(4)  = 0
 IloC161: - c(4) + y(1)(4) <= 0
 IloC162: - x(1)(4)(0) + y(1)(4) - x(1)(4)(1) - x(1)(4)(2) - x(1)(4)(3)
          - x(1)(4)(4)  = 0
 IloC163: - c(4) + y(1)(4) <= 0
 IloC164: - x(1)(4)(0) + y(1)(4) - x(1)(4)(1) - x(1)(4)(2) - x(1)(4)(3)
          - x(1)(4)(4)  = 0
 IloC165: - c(4) + y(1)(4) <= 0
 IloC166: - x(1)(4)(0) + y(1)(4) - x(1)(4)(1) - x(1)(4)(2) - x(1)(4)(3)
          - x(1)(4)(4)  = 0
 IloC167: - c(4) + y(1)(4) <= 0
 IloC168: - x(1)(5)(0) + y(1)(5) - x(1)(5)(1) - x(1)(5)(2) - x(1)(5)(3)
          - x(1)(5)(4)  = 0
 IloC169: - c(5) + y(1)(5) <= 0
 IloC170: - x(1)(5)(0) + y(1)(5) - x(1)(5)(1) - x(1)(5)(2) - x(1)(5)(3)
          - x(1)(5)(4)  = 0
 IloC171: - c(5) + y(1)(5) <= 0
 IloC172: - x(1)(5)(0) + y(1)(5) - x(1)(5)(1) - x(1)(5)(2) - x(1)(5)(3)
          - x(1)(5)(4)  = 0
 IloC173: - c(5) + y(1)(5) <= 0
 IloC174: - x(1)(5)(0) + y(1)(5) - x(1)(5)(1) - x(1)(5)(2) - x(1)(5)(3)
          - x(1)(5)(4)  = 0
 IloC175: - c(5) + y(1)(5) <= 0
 IloC176: - x(1)(5)(0) + y(1)(5) - x(1)(5)(1) - x(1)(5)(2) - x(1)(5)(3)
          - x(1)(5)(4)  = 0
 IloC177: - c(5) + y(1)(5) <= 0
 IloC178: y(1)(6) - x(1)(6)(0) - x(1)(6)(1) - x(1)(6)(2) - x(1)(6)(3)
          - x(1)(6)(4)  = 0
 IloC179: - c(6) + y(1)(6) <= 0
 IloC180: y(1)(6) - x(1)(6)(0) - x(1)(6)(1) - x(1)(6)(2) - x(1)(6)(3)
          - x(1)(6)(4)  = 0
 IloC181: - c(6) + y(1)(6) <= 0
 IloC182: y(1)(6) - x(1)(6)(0) - x(1)(6)(1) - x(1)(6)(2) - x(1)(6)(3)
          - x(1)(6)(4)  = 0
 IloC183: - c(6) + y(1)(6) <= 0
 IloC184: y(1)(6) - x(1)(6)(0) - x(1)(6)(1) - x(1)(6)(2) - x(1)(6)(3)
          - x(1)(6)(4)  = 0
 IloC185: - c(6) + y(1)(6) <= 0
 IloC186: y(1)(6) - x(1)(6)(0) - x(1)(6)(1) - x(1)(6)(2) - x(1)(6)(3)
          - x(1)(6)(4)  = 0
 IloC187: - c(6) + y(1)(6) <= 0
 IloC188: - x(1)(7)(0) + y(1)(7) - x(1)(7)(1) - x(1)(7)(2) - x(1)(7)(3)
          - x(1)(7)(4)  = 0
 IloC189: - c(7) + y(1)(7) <= 0
 IloC190: - x(1)(7)(0) + y(1)(7) - x(1)(7)(1) - x(1)(7)(2) - x(1)(7)(3)
          - x(1)(7)(4)  = 0
 IloC191: - c(7) + y(1)(7) <= 0
 IloC192: - x(1)(7)(0) + y(1)(7) - x(1)(7)(1) - x(1)(7)(2) - x(1)(7)(3)
          - x(1)(7)(4)  = 0
 IloC193: - c(7) + y(1)(7) <= 0
 IloC194: - x(1)(7)(0) + y(1)(7) - x(1)(7)(1) - x(1)(7)(2) - x(1)(7)(3)
          - x(1)(7)(4)  = 0
 IloC195: - c(7) + y(1)(7) <= 0
 IloC196: - x(1)(7)(0) + y(1)(7) - x(1)(7)(1) - x(1)(7)(2) - x(1)(7)(3)
          - x(1)(7)(4)  = 0
 IloC197: - c(7) + y(1)(7) <= 0
 IloC198: y(1)(8) - x(1)(8)(0) - x(1)(8)(1) - x(1)(8)(2) - x(1)(8)(3)
          - x(1)(8)(4)  = 0
 IloC199: - c(8) + y(1)(8) <= 0
 IloC200: y(1)(8) - x(1)(8)(0) - x(1)(8)(1) - x(1)(8)(2) - x(1)(8)(3)
          - x(1)(8)(4)  = 0
 IloC201: - c(8) + y(1)(8) <= 0
 IloC202: y(1)(8) - x(1)(8)(0) - x(1)(8)(1) - x(1)(8)(2) - x(1)(8)(3)
          - x(1)(8)(4)  = 0
 IloC203: - c(8) + y(1)(8) <= 0
 IloC204: y(1)(8) - x(1)(8)(0) - x(1)(8)(1) - x(1)(8)(2) - x(1)(8)(3)
          - x(1)(8)(4)  = 0
 IloC205: - c(8) + y(1)(8) <= 0
 IloC206: y(1)(8) - x(1)(8)(0) - x(1)(8)(1) - x(1)(8)(2) - x(1)(8)(3)
          - x(1)(8)(4)  = 0
 IloC207: - c(8) + y(1)(8) <= 0
 IloC208: x(0)(0)(0) + x(0)(0)(1) + x(0)(0)(2) + x(0)(0)(3) + x(0)(0)(4) <= 1
 IloC209: x(0)(1)(0) + x(0)(1)(1) + x(0)(1)(2) + x(0)(1)(3) + x(0)(1)(4) <= 1
 IloC210: x(0)(2)(0) + x(0)(2)(1) + x(0)(2)(2) + x(0)(2)(3) + x(0)(2)(4) <= 1
 IloC211: x(0)(3)(0) + x(0)(3)(1) + x(0)(3)(2) + x(0)(3)(3) + x(0)(3)(4) <= 1
 IloC212: x(0)(4)(0) + x(0)(4)(1) + x(0)(4)(2) + x(0)(4)(3) + x(0)(4)(4) <= 1
 IloC213: x(0)(5)(0) + x(0)(5)(1) + x(0)(5)(2) + x(0)(5)(3) + x(0)(5)(4) <= 1
 IloC214: x(0)(6)(0) + x(0)(6)(1) + x(0)(6)(2) + x(0)(6)(3) + x(0)(6)(4) <= 1
 IloC215: x(0)(7)(0) + x(0)(7)(1) + x(0)(7)(2) + x(0)(7)(3) + x(0)(7)(4) <= 1
 IloC216: x(0)(8)(0) + x(0)(8)(1) + x(0)(8)(2) + x(0)(8)(3) + x(0)(8)(4) <= 1
 IloC217: x(1)(0)(0) + x(1)(0)(1) + x(1)(0)(2) + x(1)(0)(3) + x(1)(0)(4) <= 1
 IloC218: x(1)(1)(0) + x(1)(1)(1) + x(1)(1)(2) + x(1)(1)(3) + x(1)(1)(4) <= 1
 IloC219: x(1)(2)(0) + x(1)(2)(1) + x(1)(2)(2) + x(1)(2)(3) + x(1)(2)(4) <= 1
 IloC220: x(1)(3)(0) + x(1)(3)(1) + x(1)(3)(2) + x(1)(3)(3) + x(1)(3)(4) <= 1
 IloC221: x(1)(4)(0) + x(1)(4)(1) + x(1)(4)(2) + x(1)(4)(3) + x(1)(4)(4) <= 1
 IloC222: x(1)(5)(0) + x(1)(5)(1) + x(1)(5)(2) + x(1)(5)(3) + x(1)(5)(4) <= 1
 IloC223: x(1)(6)(0) + x(1)(6)(1) + x(1)(6)(2) + x(1)(6)(3) + x(1)(6)(4) <= 1
 IloC224: x(1)(7)(0) + x(1)(7)(1) + x(1)(7)(2) + x(1)(7)(3) + x(1)(7)(4) <= 1
 IloC225: x(1)(8)(0) + x(1)(8)(1) + x(1)(8)(2) + x(1)(8)(3) + x(1)(8)(4) <= 1
 IloC226: x(0)(0)(1) + y(0)(0) + y(1)(0) <= 2
 IloC227: x(1)(0)(1) + y(0)(0) + y(1)(0) <= 2
 IloC228: x(0)(0)(1) + y(0)(0) + y(1)(0) <= 2
 IloC229: x(1)(0)(1) + y(0)(0) + y(1)(0) <= 2
 IloC0:  [ x(0)(0)(0) * D(0)(0)(0) ] >= 125000000
 IloC1:  [ x(0)(0)(0) * D(0)(0)(0) + x(0)(0)(1) * D(0)(0)(1) ] >= 125000000
 IloC2:  [ x(0)(0)(0) * D(0)(0)(0) + x(0)(0)(1) * D(0)(0)(1)
         + x(0)(1)(0) * D(0)(1)(0) ] >= 125000000
 IloC3:  [ x(0)(0)(0) * D(0)(0)(0) + x(0)(0)(1) * D(0)(0)(1)
         + D(0)(1)(1) * x(0)(1)(1) + x(0)(1)(0) * D(0)(1)(0) ] >= 125000000
 IloC4:  [ x(0)(0)(0) * D(0)(0)(0) + x(0)(0)(1) * D(0)(0)(1)
         + D(0)(1)(1) * x(0)(1)(1) + x(0)(1)(0) * D(0)(1)(0)
         + x(0)(2)(0) * D(0)(2)(0) ] >= 125000000
 IloC5:  [ x(0)(0)(0) * D(0)(0)(0) + x(0)(0)(1) * D(0)(0)(1)
         + D(0)(1)(1) * x(0)(1)(1) + D(0)(2)(1) * x(0)(2)(1)
         + x(0)(1)(0) * D(0)(1)(0) + x(0)(2)(0) * D(0)(2)(0) ] >= 125000000
 IloC6:  [ x(0)(0)(0) * D(0)(0)(0) + x(0)(0)(1) * D(0)(0)(1)
         + D(0)(1)(1) * x(0)(1)(1) + D(0)(2)(1) * x(0)(2)(1)
         + x(0)(1)(0) * D(0)(1)(0) + x(0)(2)(0) * D(0)(2)(0)
         + x(0)(3)(0) * D(0)(3)(0) ] >= 125000000
 IloC7:  [ x(0)(0)(0) * D(0)(0)(0) + x(0)(0)(1) * D(0)(0)(1)
         + D(0)(1)(1) * x(0)(1)(1) + D(0)(2)(1) * x(0)(2)(1)
         + D(0)(3)(1) * x(0)(3)(1) + x(0)(1)(0) * D(0)(1)(0)
         + x(0)(2)(0) * D(0)(2)(0) + x(0)(3)(0) * D(0)(3)(0) ] >= 125000000
 IloC8:  [ x(0)(0)(0) * D(0)(0)(0) + x(0)(0)(1) * D(0)(0)(1)
         + x(0)(4)(0) * D(0)(4)(0) + D(0)(1)(1) * x(0)(1)(1)
         + D(0)(2)(1) * x(0)(2)(1) + D(0)(3)(1) * x(0)(3)(1)
         + x(0)(1)(0) * D(0)(1)(0) + x(0)(2)(0) * D(0)(2)(0)
         + x(0)(3)(0) * D(0)(3)(0) ] >= 125000000
 IloC9:  [ x(0)(0)(0) * D(0)(0)(0) + x(0)(0)(1) * D(0)(0)(1)
         + x(0)(4)(0) * D(0)(4)(0) + D(0)(1)(1) * x(0)(1)(1)
         + D(0)(2)(1) * x(0)(2)(1) + D(0)(3)(1) * x(0)(3)(1)
         + D(0)(4)(1) * x(0)(4)(1) + x(0)(1)(0) * D(0)(1)(0)
         + x(0)(2)(0) * D(0)(2)(0) + x(0)(3)(0) * D(0)(3)(0) ] >= 125000000
 IloC10: [ x(0)(0)(0) * D(0)(0)(0) + x(0)(0)(1) * D(0)(0)(1)
         + x(0)(4)(0) * D(0)(4)(0) + x(0)(5)(0) * D(0)(5)(0)
         + D(0)(1)(1) * x(0)(1)(1) + D(0)(2)(1) * x(0)(2)(1)
         + D(0)(3)(1) * x(0)(3)(1) + D(0)(4)(1) * x(0)(4)(1)
         + x(0)(1)(0) * D(0)(1)(0) + x(0)(2)(0) * D(0)(2)(0)
         + x(0)(3)(0) * D(0)(3)(0) ] >= 125000000
 IloC11: [ x(0)(0)(0) * D(0)(0)(0) + x(0)(0)(1) * D(0)(0)(1)
         + x(0)(4)(0) * D(0)(4)(0) + x(0)(5)(0) * D(0)(5)(0)
         + D(0)(1)(1) * x(0)(1)(1) + D(0)(2)(1) * x(0)(2)(1)
         + D(0)(3)(1) * x(0)(3)(1) + D(0)(4)(1) * x(0)(4)(1)
         + D(0)(5)(1) * x(0)(5)(1) + x(0)(1)(0) * D(0)(1)(0)
         + x(0)(2)(0) * D(0)(2)(0) + x(0)(3)(0) * D(0)(3)(0) ] >= 125000000
 IloC12: [ x(0)(0)(0) * D(0)(0)(0) + x(0)(0)(1) * D(0)(0)(1)
         + x(0)(4)(0) * D(0)(4)(0) + x(0)(5)(0) * D(0)(5)(0)
         + D(0)(1)(1) * x(0)(1)(1) + D(0)(2)(1) * x(0)(2)(1)
         + D(0)(3)(1) * x(0)(3)(1) + D(0)(4)(1) * x(0)(4)(1)
         + D(0)(5)(1) * x(0)(5)(1) + x(0)(1)(0) * D(0)(1)(0)
         + x(0)(2)(0) * D(0)(2)(0) + x(0)(3)(0) * D(0)(3)(0)
         + x(0)(6)(0) * D(0)(6)(0) ] >= 125000000
 IloC13: [ x(0)(0)(0) * D(0)(0)(0) + x(0)(0)(1) * D(0)(0)(1)
         + x(0)(4)(0) * D(0)(4)(0) + x(0)(5)(0) * D(0)(5)(0)
         + D(0)(1)(1) * x(0)(1)(1) + D(0)(2)(1) * x(0)(2)(1)
         + D(0)(3)(1) * x(0)(3)(1) + D(0)(4)(1) * x(0)(4)(1)
         + D(0)(5)(1) * x(0)(5)(1) + D(0)(6)(1) * x(0)(6)(1)
         + x(0)(1)(0) * D(0)(1)(0) + x(0)(2)(0) * D(0)(2)(0)
         + x(0)(3)(0) * D(0)(3)(0) + x(0)(6)(0) * D(0)(6)(0) ] >= 125000000
 IloC14: [ x(0)(0)(0) * D(0)(0)(0) + x(0)(0)(1) * D(0)(0)(1)
         + x(0)(4)(0) * D(0)(4)(0) + x(0)(5)(0) * D(0)(5)(0)
         + x(0)(7)(0) * D(0)(7)(0) + D(0)(1)(1) * x(0)(1)(1)
         + D(0)(2)(1) * x(0)(2)(1) + D(0)(3)(1) * x(0)(3)(1)
         + D(0)(4)(1) * x(0)(4)(1) + D(0)(5)(1) * x(0)(5)(1)
         + D(0)(6)(1) * x(0)(6)(1) + x(0)(1)(0) * D(0)(1)(0)
         + x(0)(2)(0) * D(0)(2)(0) + x(0)(3)(0) * D(0)(3)(0)
         + x(0)(6)(0) * D(0)(6)(0) ] >= 125000000
 IloC15: [ x(0)(0)(0) * D(0)(0)(0) + x(0)(0)(1) * D(0)(0)(1)
         + x(0)(4)(0) * D(0)(4)(0) + x(0)(5)(0) * D(0)(5)(0)
         + x(0)(7)(0) * D(0)(7)(0) + D(0)(1)(1) * x(0)(1)(1)
         + D(0)(2)(1) * x(0)(2)(1) + D(0)(3)(1) * x(0)(3)(1)
         + D(0)(4)(1) * x(0)(4)(1) + D(0)(5)(1) * x(0)(5)(1)
         + D(0)(6)(1) * x(0)(6)(1) + D(0)(7)(1) * x(0)(7)(1)
         + x(0)(1)(0) * D(0)(1)(0) + x(0)(2)(0) * D(0)(2)(0)
         + x(0)(3)(0) * D(0)(3)(0) + x(0)(6)(0) * D(0)(6)(0) ] >= 125000000
 IloC16: [ x(0)(0)(0) * D(0)(0)(0) + x(0)(0)(1) * D(0)(0)(1)
         + x(0)(4)(0) * D(0)(4)(0) + x(0)(5)(0) * D(0)(5)(0)
         + x(0)(7)(0) * D(0)(7)(0) + D(0)(1)(1) * x(0)(1)(1)
         + D(0)(2)(1) * x(0)(2)(1) + D(0)(3)(1) * x(0)(3)(1)
         + D(0)(4)(1) * x(0)(4)(1) + D(0)(5)(1) * x(0)(5)(1)
         + D(0)(6)(1) * x(0)(6)(1) + D(0)(7)(1) * x(0)(7)(1)
         + x(0)(1)(0) * D(0)(1)(0) + x(0)(2)(0) * D(0)(2)(0)
         + x(0)(3)(0) * D(0)(3)(0) + x(0)(6)(0) * D(0)(6)(0)
         + x(0)(8)(0) * D(0)(8)(0) ] >= 125000000
 IloC17: [ x(0)(0)(0) * D(0)(0)(0) + x(0)(0)(1) * D(0)(0)(1)
         + x(0)(4)(0) * D(0)(4)(0) + x(0)(5)(0) * D(0)(5)(0)
         + x(0)(7)(0) * D(0)(7)(0) + D(0)(1)(1) * x(0)(1)(1)
         + D(0)(2)(1) * x(0)(2)(1) + D(0)(3)(1) * x(0)(3)(1)
         + D(0)(4)(1) * x(0)(4)(1) + D(0)(5)(1) * x(0)(5)(1)
         + D(0)(6)(1) * x(0)(6)(1) + D(0)(7)(1) * x(0)(7)(1)
         + D(0)(8)(1) * x(0)(8)(1) + x(0)(1)(0) * D(0)(1)(0)
         + x(0)(2)(0) * D(0)(2)(0) + x(0)(3)(0) * D(0)(3)(0)
         + x(0)(6)(0) * D(0)(6)(0) + x(0)(8)(0) * D(0)(8)(0) ] >= 125000000
 IloC18: [ x(1)(0)(0) * D(1)(0)(0) ] >= 65000000
 IloC19: [ x(1)(0)(0) * D(1)(0)(0) + x(1)(0)(1) * D(1)(0)(1) ] >= 65000000
 IloC20: [ x(1)(0)(0) * D(1)(0)(0) + x(1)(0)(1) * D(1)(0)(1)
         + x(1)(1)(0) * D(1)(1)(0) ] >= 65000000
 IloC21: [ x(1)(0)(0) * D(1)(0)(0) + x(1)(0)(1) * D(1)(0)(1)
         + D(1)(1)(1) * x(1)(1)(1) + x(1)(1)(0) * D(1)(1)(0) ] >= 65000000
 IloC22: [ x(1)(0)(0) * D(1)(0)(0) + x(1)(0)(1) * D(1)(0)(1)
         + D(1)(1)(1) * x(1)(1)(1) + x(1)(1)(0) * D(1)(1)(0)
         + x(1)(2)(0) * D(1)(2)(0) ] >= 65000000
 IloC23: [ x(1)(0)(0) * D(1)(0)(0) + x(1)(0)(1) * D(1)(0)(1)
         + D(1)(1)(1) * x(1)(1)(1) + D(1)(2)(1) * x(1)(2)(1)
         + x(1)(1)(0) * D(1)(1)(0) + x(1)(2)(0) * D(1)(2)(0) ] >= 65000000
 IloC24: [ x(1)(0)(0) * D(1)(0)(0) + x(1)(0)(1) * D(1)(0)(1)
         + D(1)(1)(1) * x(1)(1)(1) + D(1)(2)(1) * x(1)(2)(1)
         + x(1)(1)(0) * D(1)(1)(0) + x(1)(2)(0) * D(1)(2)(0)
         + x(1)(3)(0) * D(1)(3)(0) ] >= 65000000
 IloC25: [ x(1)(0)(0) * D(1)(0)(0) + x(1)(0)(1) * D(1)(0)(1)
         + D(1)(1)(1) * x(1)(1)(1) + D(1)(2)(1) * x(1)(2)(1)
         + D(1)(3)(1) * x(1)(3)(1) + x(1)(1)(0) * D(1)(1)(0)
         + x(1)(2)(0) * D(1)(2)(0) + x(1)(3)(0) * D(1)(3)(0) ] >= 65000000
 IloC26: [ x(1)(0)(0) * D(1)(0)(0) + x(1)(0)(1) * D(1)(0)(1)
         + x(1)(4)(0) * D(1)(4)(0) + D(1)(1)(1) * x(1)(1)(1)
         + D(1)(2)(1) * x(1)(2)(1) + D(1)(3)(1) * x(1)(3)(1)
         + x(1)(1)(0) * D(1)(1)(0) + x(1)(2)(0) * D(1)(2)(0)
         + x(1)(3)(0) * D(1)(3)(0) ] >= 65000000
 IloC27: [ x(1)(0)(0) * D(1)(0)(0) + x(1)(0)(1) * D(1)(0)(1)
         + x(1)(4)(0) * D(1)(4)(0) + D(1)(1)(1) * x(1)(1)(1)
         + D(1)(2)(1) * x(1)(2)(1) + D(1)(3)(1) * x(1)(3)(1)
         + D(1)(4)(1) * x(1)(4)(1) + x(1)(1)(0) * D(1)(1)(0)
         + x(1)(2)(0) * D(1)(2)(0) + x(1)(3)(0) * D(1)(3)(0) ] >= 65000000
 IloC28: [ x(1)(0)(0) * D(1)(0)(0) + x(1)(0)(1) * D(1)(0)(1)
         + x(1)(4)(0) * D(1)(4)(0) + x(1)(5)(0) * D(1)(5)(0)
         + D(1)(1)(1) * x(1)(1)(1) + D(1)(2)(1) * x(1)(2)(1)
         + D(1)(3)(1) * x(1)(3)(1) + D(1)(4)(1) * x(1)(4)(1)
         + x(1)(1)(0) * D(1)(1)(0) + x(1)(2)(0) * D(1)(2)(0)
         + x(1)(3)(0) * D(1)(3)(0) ] >= 65000000
 IloC29: [ x(1)(0)(0) * D(1)(0)(0) + x(1)(0)(1) * D(1)(0)(1)
         + x(1)(4)(0) * D(1)(4)(0) + x(1)(5)(0) * D(1)(5)(0)
         + D(1)(1)(1) * x(1)(1)(1) + D(1)(2)(1) * x(1)(2)(1)
         + D(1)(3)(1) * x(1)(3)(1) + D(1)(4)(1) * x(1)(4)(1)
         + D(1)(5)(1) * x(1)(5)(1) + x(1)(1)(0) * D(1)(1)(0)
         + x(1)(2)(0) * D(1)(2)(0) + x(1)(3)(0) * D(1)(3)(0) ] >= 65000000
 IloC30: [ x(1)(0)(0) * D(1)(0)(0) + x(1)(0)(1) * D(1)(0)(1)
         + x(1)(4)(0) * D(1)(4)(0) + x(1)(5)(0) * D(1)(5)(0)
         + D(1)(1)(1) * x(1)(1)(1) + D(1)(2)(1) * x(1)(2)(1)
         + D(1)(3)(1) * x(1)(3)(1) + D(1)(4)(1) * x(1)(4)(1)
         + D(1)(5)(1) * x(1)(5)(1) + x(1)(1)(0) * D(1)(1)(0)
         + x(1)(2)(0) * D(1)(2)(0) + x(1)(3)(0) * D(1)(3)(0)
         + x(1)(6)(0) * D(1)(6)(0) ] >= 65000000
 IloC31: [ x(1)(0)(0) * D(1)(0)(0) + x(1)(0)(1) * D(1)(0)(1)
         + x(1)(4)(0) * D(1)(4)(0) + x(1)(5)(0) * D(1)(5)(0)
         + D(1)(1)(1) * x(1)(1)(1) + D(1)(2)(1) * x(1)(2)(1)
         + D(1)(3)(1) * x(1)(3)(1) + D(1)(4)(1) * x(1)(4)(1)
         + D(1)(5)(1) * x(1)(5)(1) + D(1)(6)(1) * x(1)(6)(1)
         + x(1)(1)(0) * D(1)(1)(0) + x(1)(2)(0) * D(1)(2)(0)
         + x(1)(3)(0) * D(1)(3)(0) + x(1)(6)(0) * D(1)(6)(0) ] >= 65000000
 IloC32: [ x(1)(0)(0) * D(1)(0)(0) + x(1)(0)(1) * D(1)(0)(1)
         + x(1)(4)(0) * D(1)(4)(0) + x(1)(5)(0) * D(1)(5)(0)
         + x(1)(7)(0) * D(1)(7)(0) + D(1)(1)(1) * x(1)(1)(1)
         + D(1)(2)(1) * x(1)(2)(1) + D(1)(3)(1) * x(1)(3)(1)
         + D(1)(4)(1) * x(1)(4)(1) + D(1)(5)(1) * x(1)(5)(1)
         + D(1)(6)(1) * x(1)(6)(1) + x(1)(1)(0) * D(1)(1)(0)
         + x(1)(2)(0) * D(1)(2)(0) + x(1)(3)(0) * D(1)(3)(0)
         + x(1)(6)(0) * D(1)(6)(0) ] >= 65000000
 IloC33: [ x(1)(0)(0) * D(1)(0)(0) + x(1)(0)(1) * D(1)(0)(1)
         + x(1)(4)(0) * D(1)(4)(0) + x(1)(5)(0) * D(1)(5)(0)
         + x(1)(7)(0) * D(1)(7)(0) + D(1)(1)(1) * x(1)(1)(1)
         + D(1)(2)(1) * x(1)(2)(1) + D(1)(3)(1) * x(1)(3)(1)
         + D(1)(4)(1) * x(1)(4)(1) + D(1)(5)(1) * x(1)(5)(1)
         + D(1)(6)(1) * x(1)(6)(1) + D(1)(7)(1) * x(1)(7)(1)
         + x(1)(1)(0) * D(1)(1)(0) + x(1)(2)(0) * D(1)(2)(0)
         + x(1)(3)(0) * D(1)(3)(0) + x(1)(6)(0) * D(1)(6)(0) ] >= 65000000
 IloC34: [ x(1)(0)(0) * D(1)(0)(0) + x(1)(0)(1) * D(1)(0)(1)
         + x(1)(4)(0) * D(1)(4)(0) + x(1)(5)(0) * D(1)(5)(0)
         + x(1)(7)(0) * D(1)(7)(0) + D(1)(1)(1) * x(1)(1)(1)
         + D(1)(2)(1) * x(1)(2)(1) + D(1)(3)(1) * x(1)(3)(1)
         + D(1)(4)(1) * x(1)(4)(1) + D(1)(5)(1) * x(1)(5)(1)
         + D(1)(6)(1) * x(1)(6)(1) + D(1)(7)(1) * x(1)(7)(1)
         + x(1)(1)(0) * D(1)(1)(0) + x(1)(2)(0) * D(1)(2)(0)
         + x(1)(3)(0) * D(1)(3)(0) + x(1)(6)(0) * D(1)(6)(0)
         + x(1)(8)(0) * D(1)(8)(0) ] >= 65000000
 IloC35: [ x(1)(0)(0) * D(1)(0)(0) + x(1)(0)(1) * D(1)(0)(1)
         + x(1)(4)(0) * D(1)(4)(0) + x(1)(5)(0) * D(1)(5)(0)
         + x(1)(7)(0) * D(1)(7)(0) + D(1)(1)(1) * x(1)(1)(1)
         + D(1)(2)(1) * x(1)(2)(1) + D(1)(3)(1) * x(1)(3)(1)
         + D(1)(4)(1) * x(1)(4)(1) + D(1)(5)(1) * x(1)(5)(1)
         + D(1)(6)(1) * x(1)(6)(1) + D(1)(7)(1) * x(1)(7)(1)
         + D(1)(8)(1) * x(1)(8)(1) + x(1)(1)(0) * D(1)(1)(0)
         + x(1)(2)(0) * D(1)(2)(0) + x(1)(3)(0) * D(1)(3)(0)
         + x(1)(6)(0) * D(1)(6)(0) + x(1)(8)(0) * D(1)(8)(0) ] >= 65000000
Bounds
 0 <= c(0) <= 1
 0 <= c(4) <= 1
 0 <= c(5) <= 1
 0 <= c(7) <= 1
 0 <= x(0)(0)(0) <= 1
 0 <= x(0)(0)(1) <= 1
 0 <= x(0)(4)(0) <= 1
 0 <= x(0)(5)(0) <= 1
 0 <= x(0)(7)(0) <= 1
 0 <= x(1)(0)(0) <= 1
 0 <= x(1)(0)(1) <= 1
 0 <= x(1)(4)(0) <= 1
 0 <= x(1)(5)(0) <= 1
 0 <= x(1)(7)(0) <= 1
 0 <= D(0)(0)(1) <= 1
 0 <= D(0)(1)(1) <= 1
 0 <= D(0)(2)(1) <= 1
 0 <= D(0)(3)(1) <= 1
 0 <= D(0)(4)(1) <= 1
 0 <= D(0)(5)(1) <= 1
 0 <= D(0)(6)(1) <= 1
 0 <= D(0)(7)(1) <= 1
 0 <= D(0)(8)(1) <= 1
 0 <= D(1)(0)(1) <= 1
 0 <= D(1)(1)(1) <= 1
 0 <= D(1)(2)(1) <= 1
 0 <= D(1)(3)(1) <= 1
 0 <= D(1)(4)(1) <= 1
 0 <= D(1)(5)(1) <= 1
 0 <= D(1)(6)(1) <= 1
 0 <= D(1)(7)(1) <= 1
 0 <= D(1)(8)(1) <= 1
 0 <= y(0)(0) <= 2
 0 <= x(0)(0)(2) <= 1
 0 <= x(0)(0)(3) <= 1
 0 <= x(0)(0)(4) <= 1
 0 <= y(0)(1) <= 2
 0 <= x(0)(1)(0) <= 1
 0 <= x(0)(1)(1) <= 1
 0 <= x(0)(1)(2) <= 1
 0 <= x(0)(1)(3) <= 1
 0 <= x(0)(1)(4) <= 1
 0 <= c(1) <= 1
 0 <= y(0)(2) <= 2
 0 <= x(0)(2)(0) <= 1
 0 <= x(0)(2)(1) <= 1
 0 <= x(0)(2)(2) <= 1
 0 <= x(0)(2)(3) <= 1
 0 <= x(0)(2)(4) <= 1
 0 <= c(2) <= 1
 0 <= y(0)(3) <= 2
 0 <= x(0)(3)(0) <= 1
 0 <= x(0)(3)(1) <= 1
 0 <= x(0)(3)(2) <= 1
 0 <= x(0)(3)(3) <= 1
 0 <= x(0)(3)(4) <= 1
 0 <= c(3) <= 1
 0 <= y(0)(4) <= 2
 0 <= x(0)(4)(1) <= 1
 0 <= x(0)(4)(2) <= 1
 0 <= x(0)(4)(3) <= 1
 0 <= x(0)(4)(4) <= 1
 0 <= y(0)(5) <= 2
 0 <= x(0)(5)(1) <= 1
 0 <= x(0)(5)(2) <= 1
 0 <= x(0)(5)(3) <= 1
 0 <= x(0)(5)(4) <= 1
 0 <= y(0)(6) <= 2
 0 <= x(0)(6)(0) <= 1
 0 <= x(0)(6)(1) <= 1
 0 <= x(0)(6)(2) <= 1
 0 <= x(0)(6)(3) <= 1
 0 <= x(0)(6)(4) <= 1
 0 <= c(6) <= 1
 0 <= y(0)(7) <= 2
 0 <= x(0)(7)(1) <= 1
 0 <= x(0)(7)(2) <= 1
 0 <= x(0)(7)(3) <= 1
 0 <= x(0)(7)(4) <= 1
 0 <= y(0)(8) <= 2
 0 <= x(0)(8)(0) <= 1
 0 <= x(0)(8)(1) <= 1
 0 <= x(0)(8)(2) <= 1
 0 <= x(0)(8)(3) <= 1
 0 <= x(0)(8)(4) <= 1
 0 <= c(8) <= 1
 0 <= y(1)(0) <= 2
 0 <= x(1)(0)(2) <= 1
 0 <= x(1)(0)(3) <= 1
 0 <= x(1)(0)(4) <= 1
 0 <= y(1)(1) <= 2
 0 <= x(1)(1)(0) <= 1
 0 <= x(1)(1)(1) <= 1
 0 <= x(1)(1)(2) <= 1
 0 <= x(1)(1)(3) <= 1
 0 <= x(1)(1)(4) <= 1
 0 <= y(1)(2) <= 2
 0 <= x(1)(2)(0) <= 1
 0 <= x(1)(2)(1) <= 1
 0 <= x(1)(2)(2) <= 1
 0 <= x(1)(2)(3) <= 1
 0 <= x(1)(2)(4) <= 1
 0 <= y(1)(3) <= 2
 0 <= x(1)(3)(0) <= 1
 0 <= x(1)(3)(1) <= 1
 0 <= x(1)(3)(2) <= 1
 0 <= x(1)(3)(3) <= 1
 0 <= x(1)(3)(4) <= 1
 0 <= y(1)(4) <= 2
 0 <= x(1)(4)(1) <= 1
 0 <= x(1)(4)(2) <= 1
 0 <= x(1)(4)(3) <= 1
 0 <= x(1)(4)(4) <= 1
 0 <= y(1)(5) <= 2
 0 <= x(1)(5)(1) <= 1
 0 <= x(1)(5)(2) <= 1
 0 <= x(1)(5)(3) <= 1
 0 <= x(1)(5)(4) <= 1
 0 <= y(1)(6) <= 2
 0 <= x(1)(6)(0) <= 1
 0 <= x(1)(6)(1) <= 1
 0 <= x(1)(6)(2) <= 1
 0 <= x(1)(6)(3) <= 1
 0 <= x(1)(6)(4) <= 1
 0 <= y(1)(7) <= 2
 0 <= x(1)(7)(1) <= 1
 0 <= x(1)(7)(2) <= 1
 0 <= x(1)(7)(3) <= 1
 0 <= x(1)(7)(4) <= 1
 0 <= y(1)(8) <= 2
 0 <= x(1)(8)(0) <= 1
 0 <= x(1)(8)(1) <= 1
 0 <= x(1)(8)(2) <= 1
 0 <= x(1)(8)(3) <= 1
 0 <= x(1)(8)(4) <= 1
 0 <= D(0)(0)(0) <= 1
 0 <= D(0)(1)(0) <= 1
 0 <= D(0)(2)(0) <= 1
 0 <= D(0)(3)(0) <= 1
 0 <= D(0)(4)(0) <= 1
 0 <= D(0)(5)(0) <= 1
 0 <= D(0)(6)(0) <= 1
 0 <= D(0)(7)(0) <= 1
 0 <= D(0)(8)(0) <= 1
 0 <= D(1)(0)(0) <= 1
 0 <= D(1)(1)(0) <= 1
 0 <= D(1)(2)(0) <= 1
 0 <= D(1)(3)(0) <= 1
 0 <= D(1)(4)(0) <= 1
 0 <= D(1)(5)(0) <= 1
 0 <= D(1)(6)(0) <= 1
 0 <= D(1)(7)(0) <= 1
 0 <= D(1)(8)(0) <= 1
Generals
 c(0)  c(4)  c(5)  c(7)  x(0)(0)(0)  x(0)(0)(1)  x(0)(4)(0)  x(0)(5)(0) 
 x(0)(7)(0)  x(1)(0)(0)  x(1)(0)(1)  x(1)(4)(0)  x(1)(5)(0)  x(1)(7)(0) 
 y(0)(0)  x(0)(0)(2)  x(0)(0)(3)  x(0)(0)(4)  y(0)(1)  x(0)(1)(0)  x(0)(1)(1) 
 x(0)(1)(2)  x(0)(1)(3)  x(0)(1)(4)  c(1)  y(0)(2)  x(0)(2)(0)  x(0)(2)(1) 
 x(0)(2)(2)  x(0)(2)(3)  x(0)(2)(4)  c(2)  y(0)(3)  x(0)(3)(0)  x(0)(3)(1) 
 x(0)(3)(2)  x(0)(3)(3)  x(0)(3)(4)  c(3)  y(0)(4)  x(0)(4)(1)  x(0)(4)(2) 
 x(0)(4)(3)  x(0)(4)(4)  y(0)(5)  x(0)(5)(1)  x(0)(5)(2)  x(0)(5)(3) 
 x(0)(5)(4)  y(0)(6)  x(0)(6)(0)  x(0)(6)(1)  x(0)(6)(2)  x(0)(6)(3) 
 x(0)(6)(4)  c(6)  y(0)(7)  x(0)(7)(1)  x(0)(7)(2)  x(0)(7)(3)  x(0)(7)(4) 
 y(0)(8)  x(0)(8)(0)  x(0)(8)(1)  x(0)(8)(2)  x(0)(8)(3)  x(0)(8)(4)  c(8) 
 y(1)(0)  x(1)(0)(2)  x(1)(0)(3)  x(1)(0)(4)  y(1)(1)  x(1)(1)(0)  x(1)(1)(1) 
 x(1)(1)(2)  x(1)(1)(3)  x(1)(1)(4)  y(1)(2)  x(1)(2)(0)  x(1)(2)(1) 
 x(1)(2)(2)  x(1)(2)(3)  x(1)(2)(4)  y(1)(3)  x(1)(3)(0)  x(1)(3)(1) 
 x(1)(3)(2)  x(1)(3)(3)  x(1)(3)(4)  y(1)(4)  x(1)(4)(1)  x(1)(4)(2) 
 x(1)(4)(3)  x(1)(4)(4)  y(1)(5)  x(1)(5)(1)  x(1)(5)(2)  x(1)(5)(3) 
 x(1)(5)(4)  y(1)(6)  x(1)(6)(0)  x(1)(6)(1)  x(1)(6)(2)  x(1)(6)(3) 
 x(1)(6)(4)  y(1)(7)  x(1)(7)(1)  x(1)(7)(2)  x(1)(7)(3)  x(1)(7)(4)  y(1)(8) 
 x(1)(8)(0)  x(1)(8)(1)  x(1)(8)(2)  x(1)(8)(3)  x(1)(8)(4) 
End
